c Medium complexity unsatisfiable circuit
c This circuit contains a logical contradiction
c Variables represent circuit nodes that cannot be consistently assigned
c The dependencies create an impossible configuration
p cnf 6 10
1 2 0
-1 -2 0
1 -2 3 0
-3 4 0
3 -4 0
4 5 0
-4 -5 0
5 6 0
-5 6 0
-6 0